3
4
20
1 1.3 1.55 1.75 2.1
49 36 47 38 47 20 17 34 14 29 44 38 13 24 21 27 46 48 18 22 44 27 8 11 35 49 41 22 27 8 16 32 32 26 5 48 44 31 18 35 20 9 6 42 33 33 42 5 21 30 22 31 24 38 28 49 38 43 48 10 34 36 36 30 6 16 24 15 41 11 31 49 19 48 17 15 46 33 16 45 